$rem
jobtype            FREQ
exchange           wb97x-d
BASIS              def2-SVP
ECP                def2-ecp
geom_opt_coords    0
max_scf_cycles     250
QM_MM_INTERFACE    Zeolite
force_field        charmm27
user_connect       TRUE
symmetry           FALSE
sym_ignore         TRUE
print_input        TRUE
qmmm_print         FALSE
qm_mm              TRUE
qmmm_full_hessian  FALSE
mem_total          24000
mem_static         450
AIMD_FIXED_ATOMS   675
pop_mulliken       FALSE
isotopes           TRUE
$end

$QM_ATOMS
1
2
3
4
5
6
7
8
9
10
11
12
13
14
15
16
17
18
19
20
21
22
23
24
25
26
$end

$ISOTOPES
1 0
12
27 100000000000000000
28 100000000000000000
29 100000000000000000
30 100000000000000000
31 100000000000000000
32 100000000000000000
33 100000000000000000
34 100000000000000000
35 100000000000000000
36 100000000000000000
37 100000000000000000
38 100000000000000000
$end

$comment
Atom   type   and   names
-1   Oxygen   in   SiO4
-2   Silicon   in   SiO4
-3   H for terminal in SiO4
-4   H hydrolysis
-23  Si right out of T5 and has one connectin to QM
-22  Si right out of T5 and has two connectin to QM
-912   C   in   glucose
-916   O   in   glucose
-901   H   for   HC in glucose
-801   H   for   HO in glucose

!!!no use
-111   CH3   hydrogen
-112   CH2   hydrogen
-121   CH3   carbon
-122   CH2   carbon
-13   O   for   alkoxide   linkage   note:   using   guess   params   for   C-O   single   bond
-15   H   in   dihydrogen
!!!

-54 OGTIP3  TIPS3P WATER OXYGEN
-48 HGTIP3  polar H, TIPS3P WATER HYDROGEN
!!!
-45 CG2O5 adm, acetone, C
-46 OG2D3 amd, acetone, O
-5   Sn, but not test yet
$end


$force_field_params
NumAtomTypes   3000
AtomType   -1   -0.35   1.77   -0.018
AtomType   -13   -0.35   1.77   -0.018
AtomType   -2   0.7   2.2   -0.047
AtomType   -3   -0.175   0.01   0
AtomType   -4    0.175   0.01   0
AtomType   -5    0  3.316 -0.045
AtomType   -23   0.525   2.2   -0.047
AtomType   -22   0.35   2.2   -0.047
AtomType   -21   0.175   2.2   -0.047
AtomType   -45   0.0    2.000   -0.0900
AtomType   -46   0.0    1.700   -0.0500
AtomType    -48 0   0.2245  -0.046
AtomType    -54 0   1.7682     -0.1521
AtomType   -111   0   1.34   -0.024
AtomType   -112   0   1.34   -0.035
AtomType   -121   0   2.05   -0.078
AtomType   -122   0   2.01   -0.056
AtomType   -912   0   2.175   -0.055
AtomType   -916   0   1.77   -0.1521
AtomType   -901   0   1.32   -0.022
AtomType   -801   0   0.2245   -0.046
Bond   -1   -2   304   1.682
Bond   -1   -3   204   1.489
Bond   -2   -3   100   1.45
Angle   -1   -2   -1   34   150
Angle   -2   -1   -2   30   121.5
Angle   -3   -1   -2   44   118
Angle   -1   -2   -3   30   109.5
Torsion   -2   -1   -2   -1   0.1   120   3
Torsion   -2   -1   -2   -3   0.3   120   3
Bond   -121   -122   222.5   1.528
Bond   -121   -121   222.5   1.528
Bond   -122   -122   222.5   1.528
Bond   -111   -121   309   1.089
Bond   -112   -122   309   1.089
Angle   -121   -122   -122   58   115
Angle   -121   -121   -122   58   115
Angle   -121   -121   -121   58   115
Angle   -122   -122   -122   58   115
Angle   -111   -121   -111   35.5   108.4
Angle   -111   -121   -121   35.5   108.4
Angle   -111   -121   -122   35.5   108.4
Angle   -112   -122   -112   35.5   108.4
Angle   -112   -122   -121   35.5   108.4
Angle   -112   -122   -122   35.5   108.4
Torsion   -111   -121   -122   -122   0.16   120   3
Torsion   -111   -121   -121   -121   0.16   120   3
Torsion   -111   -121   -121   -111   0.16   120   3
Torsion   -111   -121   -122   -112   0.16   120   3
Torsion   -112   -122   -122   -122   95.16   180   2
Torsion   -112   -122   -122   -112   95.16   180   2
Torsion   -121   -122   -122   -122   95.16   180   2
Torsion   -121   -122   -122   -112   95.16   180   2
Torsion   -122   -122   -122   -112   95.16   180   2
Torsion   -112   -122   -122   -121   95.16   180   2
Bond   -13   -1   304   1.682
Bond   -13   -121   222.5   1.55
Angle   -13   -121   -121   40   111
Angle   -13   -121   -1   34   150
Angle   -13   -121   -111   35.5   115
Torsion   -1   -13   -121   -121   0.2   120   3
Torsion   -1   -13   -121   -111   0.2   120   3
Bond   -901   -912   342.991   1.093
Bond   -801   -916   560.905   0.972
Bond   -916   -912   363.214   1.418
Bond   -912   -912   306.432   1.508
Angle   -916   -912   -912   71.39   108.133
Angle   -916   -912   -916   83.192   111.368
Angle   -916   -912   -901   56.205   108.577
Angle   -912   -912   -901   45.77   110.549
Angle   -912   -916   -912   86.143   106.926
Angle   -912   -912   -912   61.243   109.608
Angle   -912   -916   -801   57.069   106.503
Angle   -901   -912   -901   37.134   108.836
Torsion   -912   -916   -912   -912   -0.341   0   1
Torsion   -912   -916   -912   -912   0.378   180   2
Torsion   -912   -916   -912   -912   0.378   0   3
Torsion   -912   -916   -912   -901   0.285   0   1
Torsion   -912   -916   -912   -901   0.16   180   2
Torsion   -912   -916   -912   -901   0.285   0   3
Torsion   -912   -912   -912   -912   0.051   0   1
Torsion   -912   -912   -912   -912   0.341   180   2
Torsion   -912   -912   -912   -912   0.166   0   3
Torsion   -912   -912   -912   -916   -0.344   0   1
Torsion   -912   -912   -912   -916   0.878   180   2
Torsion   -912   -912   -912   -916   0.238   0   3
Torsion   -912   -912   -912   -901   0.32   0   1
Torsion   -912   -912   -912   -901   -0.315   180   2
Torsion   -912   -912   -912   -901   0.132   0   3
Torsion   -912   -912   -916   -801   0.135   180   2
Torsion   -912   -912   -916   -801   0.118   0   3
Torsion   -916   -912   -912   -916   0.204   0   1
Torsion   -916   -912   -912   -916   0.699   180   2
Torsion   -916   -912   -912   -916   0.48   0   3
Torsion   -916   -912   -912   -901   -0.327   0   1
Torsion   -916   -912   -912   -901   0.536   180   2
Torsion   -916   -912   -912   -901   0.14   0   3
Torsion   -916   -912   -916   -801   0.744   0   1
Torsion   -916   -912   -916   -801   -1.7   180   2
Torsion   -916   -912   -916   -801   -0.16   0   3
Torsion   -912   -916   -912   -916   0.115   0   1
Torsion   -912   -916   -912   -916   -0.355   180   2
Torsion   -912   -916   -912   -916   0.361   0   3
Torsion   -901   -912   -912   -901   0.142   0   1
Torsion   -901   -912   -912   -901   -0.693   180   2
Torsion   -901   -912   -912   -901   0.157   0   3
Torsion   -901   -912   -916   -801   0.298   0   1
Torsion   -901   -912   -916   -801   -0.138   180   2
Torsion   -901   -912   -916   -801   0.173   0   3
Imptor	-912   -912   -916   -916       0.000  0     0.00
Imptor	-912   -916   -916   -901     0.000  0     0.00
Imptor	-912   -912   -916   -912       0.000  0     0.00
Imptor	-912   -912   -916   -901     0.000  0     0.00
Imptor	-912   -912   -912   -916       0.000  0     0.00
Imptor	-912   -912   -912   -901     0.000  0     0.00
Imptor	-912   -916   -912   -901     0.000  0     0.00
$end

$MOLECULE
0 1
C	1.4936920357	0.2580870350	1.8618357458	-121	0	0	0	0
C	0.0397316136	0.0040286848	1.5621886927	-45	0	0	0	0
O	-0.8080942317	-0.0743608582	2.4148057604	-46	0	0	0	0
C	-0.3568058836	-0.1300489568	0.0921167921	-122	0	0	0	0
O	0.5984207828	-0.8249883339	-0.6936824913	-916	0	0	0	0
H	2.0658622505	-0.6523994394	1.6231042306	-111	0	0	0	0
H	1.6129214788	0.4927173328	2.9259007516	-111	0	0	0	0
H	1.8787038346	1.0792096102	1.2391358095	-111	0	0	0	0
H	-0.5140522197	0.8802349168	-0.3236862209	-112	0	0	0	0
H	-1.3059788572	-0.6778416397	0.0372897648	-112	0	0	0	0
H	1.3883637789	-0.2666583751	-0.8792042995	-801	0	0	0	0
O	2.6583330173	0.8592027357	-1.1188920833	-54	0	0	0	0
H	2.8494242030	1.2254441545	-1.9914675256	-48	0	0	0	0
H	3.5189591608	0.7048558579	-0.7141248495	-48	0	0	0	0
Sn	0.6121582879	-3.1456693643	-0.7388781967	0	16	17	18	20
O	0.7408974457	-5.0911687931	-1.0707540117	0	15	25	0	0
O	0.8832742867	-3.0517952973	1.1577953730	0	15	23	0	0
O	-1.2539386492	-2.8754120218	-1.0620654324	0	15	24	0	0
O	2.6230174318	-2.6806320129	-0.8657361186	0	26	0	0	0
O	1.0711238197	-2.7872340295	-2.7235642574	0	15	0	0	0
H	3.2930273373	-2.8289160197	-0.1807193044	0	0	0	0	0
H	0.8479701201	-3.5600475173	-3.2664036682	0	0	0	0	0
Si	-0.0650558239	-3.5254765802	2.3975827755	0	17	98	101	102
Si	-1.9274929966	-2.6384942868	-2.5385256711	0	18	197	203	371
Si	0.6320191572	-6.6838786697	-0.7510754307	0	16	377	378	379
Si	3.0283222615	-2.6374290925	-2.5850361645	0	19	200	205	384
Si	3.04276	-11.14817	-9.14481	-2	558	528	642	643
Si	-7.23708	0.70352	-10.9051	-2	34	35	33	644
Si	-7.23626	-2.49048	-10.90228	-2	33	36	37	645
Si	-4.2261	0.71135	-10.98999	-2	39	34	38	617
Si	-4.22529	-2.49465	-10.99017	-2	38	36	40	618
Si	-9.61851	1.51356	-9.14034	-2	533	569	35	646
O	-7.2061	-0.8935	-10.6582	-1	28	29	0	0
O	-5.73103	1.28643	-10.85251	-1	28	30	0	0
O	-8.1277	1.4095	-9.75679	-1	28	32	0	0
O	-5.72928	-3.07057	-10.84976	-1	29	31	0	0
O	-8.12596	-3.1945	-9.75105	-1	29	594	0	0
O	-4.24214	-0.89166	-10.78807	-1	30	31	0	0
O	-3.28673	1.38823	-9.86323	-1	30	595	0	0
O	-3.28299	-3.17077	-9.86449	-1	31	543	0	0
Si	0.6189	0.70007	-10.97443	-2	50	51	48	49
Si	0.62072	-2.49693	-10.97861	-2	48	53	54	52
Si	5.42392	0.70279	-10.90885	-2	57	56	55	315
Si	5.42474	-2.49121	-10.90603	-2	55	58	59	316
Si	8.4349	0.71063	-10.99374	-2	56	61	60	647
Si	8.43571	-2.49537	-10.99393	-2	58	60	62	648
Si	3.04349	1.51283	-9.1441	-2	549	589	51	57
O	0.60988	-0.89894	-10.73851	-1	41	42	0	0
O	0.58845	1.01116	-12.5604	-1	41	311	0	0
O	-0.67985	1.35611	-10.272	-1	41	595	0	0
O	1.95813	1.33296	-10.32779	-1	41	47	0	0
O	0.58823	-2.80284	-12.56461	-1	42	312	0	0
O	-0.67611	-3.15589	-10.27626	-1	42	543	0	0
O	1.96187	-3.12904	-10.33504	-1	42	596	0	0
O	5.4549	-0.89422	-10.66195	-1	43	44	0	0
O	6.93097	1.2857	-10.85626	-1	43	45	0	0
O	4.5333	1.40878	-9.76055	-1	43	47	0	0
O	6.93272	-3.0713	-10.85351	-1	44	46	0	0
O	4.53504	-3.19522	-9.75481	-1	44	596	0	0
O	8.41986	-0.89238	-10.79183	-1	45	46	0	0
O	9.37427	1.38751	-9.86698	-1	45	597	0	0
O	9.37801	-3.17149	-9.86824	-1	46	561	0	0
H	-3.16625	9.47522	-9.80781	-3	576	0	0	0
H	-0.76836	9.48811	-10.18752	-3	576	0	0	0
H	2.04862	9.51395	-10.24035	-3	598	0	0	0
H	4.41678	9.45278	-9.70606	-3	598	0	0	0
H	0.54424	0.98468	13.73061	-3	328	0	0	0
H	0.54403	-2.77932	13.7254	-3	329	0	0	0
Si	-7.90961	-6.71419	2.23068	-2	77	76	74	75
Si	-7.91243	-3.51719	2.22787	-2	74	80	79	78
Si	-12.71559	-6.71691	2.29911	-2	82	649	81	359
Si	-12.7164	-3.52291	2.30229	-2	81	84	83	361
Si	-10.33311	-7.52715	4.06236	-2	82	77	468	444
O	-7.90045	-5.1152	2.46777	-1	69	70	0	0
O	-7.8801	-7.0251	0.64566	-1	69	353	0	0
O	-6.61044	-7.3703	2.93226	-1	69	599	0	0
O	-9.24845	-7.34715	2.87805	-1	69	73	0	0
O	-7.87988	-3.2111	0.64087	-1	70	354	0	0
O	-6.61418	-2.8583	2.92852	-1	70	462	0	0
O	-9.2522	-2.88514	2.8713	-1	70	600	0	0
O	-12.74642	-5.11993	2.54621	-1	71	72	0	0
O	-11.82429	-7.42203	3.44681	-1	71	73	0	0
H	-14.10236	-2.98784	2.35173	-3	72	0	0	0
O	-11.82602	-2.81903	3.45307	-1	72	600	0	0
Si	4.75139	-6.71491	2.22693	-2	94	93	91	92
Si	4.74957	-3.51791	2.22411	-2	91	97	96	95
Si	-0.05359	-6.71764	2.29535	-22	99	100	98	377
Si	-3.06461	-6.72546	2.21225	-2	104	99	103	621
Si	-3.06543	-3.51846	2.21243	-23	103	105	101	622
Si	2.32789	-7.52788	4.0586	-2	100	94	490	455
O	4.76055	-5.11592	2.46402	-1	85	86	0	0
O	4.7809	-7.02582	0.6419	-1	85	372	0	0
O	6.05056	-7.37102	2.92851	-1	85	601	0	0
O	3.41255	-7.34787	2.87429	-1	85	90	0	0
O	4.78112	-3.21182	0.63712	-1	86	373	0	0
O	6.04682	-2.85902	2.92476	-1	86	484	0	0
O	3.4088	-2.88587	2.86754	-1	86	602	0	0
O	-0.08442	-5.12065	2.54245	-1	87	23	0	0
O	-1.56061	-7.29956	2.34877	-1	87	88	0	0
O	0.83771	-7.42276	3.44305	-1	87	90	0	0
O	-1.56236	-2.94256	2.35202	-1	23	89	0	0
O	0.83498	-2.81976	3.44931	-1	23	602	0	0
O	-3.04946	-5.12247	2.41433	-1	88	89	0	0
O	-4.00332	-7.40147	3.33949	-1	88	599	0	0
O	-4.00706	-2.84347	3.33975	-1	89	462	0	0
Si	12.60741	-6.71836	2.2916	-2	650	111	110	391
Si	12.60659	-3.52436	2.29478	-2	110	113	112	393
Si	9.59639	-6.72619	2.20849	-2	111	115	114	623
Si	9.59557	-3.51919	2.20867	-2	114	112	116	624
O	12.57658	-5.12138	2.5387	-1	106	107	0	0
O	11.10139	-7.30028	2.34501	-1	106	108	0	0
O	11.09964	-2.94328	2.34826	-1	107	109	0	0
H	13.42595	-2.87647	3.35357	-3	107	0	0	0
O	9.61254	-5.1232	2.41058	-1	108	109	0	0
O	8.65768	-7.4022	3.33573	-1	108	601	0	0
O	8.65394	-2.8442	3.33599	-1	109	484	0	0
Si	-7.90888	5.94781	2.2314	-2	121	124	123	122
Si	-7.9117	9.14381	2.22858	-2	127	126	121	125
Si	-12.71486	5.94509	2.29983	-2	651	128	652	403
Si	-10.33239	5.13385	4.06307	-2	128	124	508	477
O	-7.89972	7.5458	2.46849	-1	117	118	0	0
O	-7.87937	5.6369	0.64637	-1	117	397	0	0
O	-6.60971	5.2917	2.93298	-1	117	603	0	0
O	-9.24773	5.31485	2.87876	-1	117	120	0	0
O	-7.87915	9.4499	0.64159	-1	118	398	0	0
O	-6.61345	9.8037	2.92923	-1	118	502	0	0
H	-9.14449	9.72485	2.82098	-3	118	0	0	0
O	-11.82356	5.23897	3.44752	-1	119	120	0	0
Si	4.75212	5.94709	2.22765	-2	136	139	138	137
Si	4.7503	9.14309	2.22483	-2	142	141	136	140
Si	-0.05286	5.94436	2.29607	-2	143	144	145	422
Si	-0.05368	9.13736	2.29925	-2	146	147	143	425
Si	-3.06389	5.93654	2.21296	-2	148	149	144	625
Si	-3.0647	9.14254	2.21314	-2	150	146	148	626
Si	2.32861	5.13312	4.05932	-2	145	139	520	499
O	4.76128	7.54508	2.46473	-1	129	130	0	0
O	4.78163	5.63618	0.64262	-1	129	416	0	0
O	6.05129	5.29098	2.92922	-1	129	604	0	0
O	3.41327	5.31413	2.87501	-1	129	135	0	0
O	4.78185	9.44918	0.63783	-1	130	417	0	0
O	6.04754	9.80298	2.92548	-1	130	514	0	0
O	3.40953	9.77513	2.86826	-1	130	605	0	0
O	-0.0837	7.54035	2.54317	-1	131	132	0	0
O	-1.55988	5.36144	2.34948	-1	131	133	0	0
O	0.83844	5.23824	3.44377	-1	131	135	0	0
O	-1.56163	9.71844	2.35273	-1	132	134	0	0
O	0.8357	9.84124	3.45003	-1	132	605	0	0
O	-3.04874	7.53953	2.41505	-1	133	134	0	0
O	-4.00259	5.25953	3.3402	-1	133	603	0	0
O	-4.00633	9.81753	3.34046	-1	134	502	0	0
Si	12.60814	5.94364	2.29231	-2	154	156	155	437
Si	9.59711	5.93581	2.20921	-2	155	158	159	627
Si	9.59629	9.14181	2.20939	-2	157	160	158	628
H	12.57929	7.41162	2.51941	-3	151	0	0	0
O	11.10212	5.36072	2.34573	-1	151	152	0	0
H	13.42841	5.29353	3.34803	-3	151	0	0	0
H	10.98036	9.67173	2.33801	-3	153	0	0	0
O	9.61326	7.5388	2.41129	-1	152	153	0	0
O	8.65841	5.2588	3.33645	-1	152	604	0	0
O	8.65467	9.8168	3.33671	-1	153	514	0	0
H	-9.79634	-8.85777	-3.20488	-3	357	0	0	0
Si	-1.0249	-12.92721	-4.30671	-2	166	167	525	168
Si	2.1681	-12.92639	-4.30466	-2	169	527	166	170
Si	-1.03275	-9.91721	-4.38954	-2	171	629	167	172
Si	2.17325	-9.91639	-4.39049	-2	630	171	169	173
O	0.57117	-12.89732	-4.05918	-1	162	163	0	0
O	-1.6078	-11.42118	-4.25245	-1	162	164	0	0
H	-1.67464	-13.74823	-3.24956	-3	162	0	0	0
O	2.7492	-11.41943	-4.25174	-1	163	165	0	0
H	2.81637	-13.74549	-3.24589	-3	163	0	0	0
O	0.5703	-9.93231	-4.18801	-1	164	165	0	0
O	-1.70937	-8.97823	-3.26228	-1	164	607	0	0
O	2.84863	-8.97449	-3.26463	-1	165	376	0	0
H	10.94166	-8.86296	-3.21003	-3	608	0	0	0
Si	-10.48647	-5.06866	-4.37346	-2	179	180	182	181
Si	-13.68618	-0.26549	-4.30224	-2	653	183	654	655
Si	-10.49218	-0.26467	-4.30018	-2	183	184	532	185
Si	-10.48703	2.74634	-4.38602	-2	186	631	184	187
H	-11.95641	-5.07859	-4.15202	-3	175	0	0	0
O	-10.18094	-5.10159	-5.96055	-1	175	530	0	0
O	-9.82734	-6.36674	-3.67173	-1	175	357	0	0
O	-9.8542	-3.72774	-3.73057	-1	175	606	0	0
O	-12.0891	-0.23459	-4.05471	-1	176	177	0	0
O	-9.91107	1.2423	-4.24727	-1	177	178	0	0
O	-9.78788	-1.15477	-3.14944	-1	177	606	0	0
H	-11.96297	2.73041	-4.19958	-3	178	0	0	0
O	-9.81164	3.68823	-3.26016	-1	178	401	0	0
Si	-1.02147	-5.07121	-4.37327	-23	194	195	197	196
Si	2.17453	-5.06939	-4.37721	-23	198	194	200	199
Si	-1.02418	-0.26621	-4.30599	-23	201	202	545	203
Si	2.16882	-0.26539	-4.30394	-23	204	201	548	205
Si	-1.03203	2.74479	-4.38882	-2	206	632	202	207
Si	2.17397	2.74561	-4.38977	-2	633	206	204	208
O	0.5766	-5.08031	-4.13674	-1	188	189	0	0
O	-1.33294	-5.1021	-5.95818	-1	188	539	0	0
O	-1.67734	-6.37121	-3.67014	-1	188	607	0	0
O	-1.6542	-3.73321	-3.726	-1	188	24	0	0
O	2.48005	-5.10232	-5.96431	-1	189	540	0	0
O	2.83466	-6.36747	-3.67548	-1	189	376	0	0
O	2.80679	-3.72846	-3.73433	-1	189	26	0	0
O	0.5719	-0.23532	-4.05846	-1	190	191	0	0
O	-1.60707	1.23982	-4.25174	-1	190	192	0	0
O	-1.72989	-1.15723	-3.15683	-1	190	24	0	0
O	2.74993	1.24157	-4.25103	-1	191	193	0	0
O	2.87311	-1.1555	-3.1532	-1	191	26	0	0
O	0.57103	2.72869	-4.1873	-1	192	193	0	0
O	-1.70864	3.68377	-3.26157	-1	192	610	0	0
O	2.84936	3.68751	-3.26392	-1	193	420	0	0
Si	11.63953	-5.07193	-4.37702	-2	213	214	216	215
Si	11.63682	-0.26694	-4.30975	-2	217	218	562	219
Si	11.62897	2.74407	-4.39258	-2	220	634	218	221
Si	10.82621	-2.64899	-2.54564	-2	219	387	394	216
H	13.10959	-5.08003	-4.15946	-3	209	0	0	0
O	11.32806	-5.10282	-5.96193	-1	209	560	0	0
O	10.98366	-6.37193	-3.6739	-1	209	608	0	0
O	11.0068	-3.73393	-3.72976	-1	209	212	0	0
H	13.10589	-0.23803	-4.08218	-3	210	0	0	0
O	11.05392	1.23909	-4.25549	-1	210	211	0	0
O	10.93111	-1.15796	-3.16059	-1	210	212	0	0
H	13.10402	2.72897	-4.20701	-3	211	0	0	0
O	10.95236	3.68304	-3.26532	-1	211	612	0	0
Si	-10.48575	7.59234	-4.37274	-2	656	223	225	224
H	-10.20418	7.5634	-5.83283	-3	222	0	0	0
O	-9.82661	6.29526	-3.67101	-1	222	401	0	0
O	-9.85348	8.93326	-3.72985	-1	222	609	0	0
Si	-1.02075	7.58979	-4.37255	-2	231	232	234	233
Si	2.17525	7.59161	-4.3765	-2	235	231	237	236
Si	-1.02345	12.39479	-4.30528	-2	238	578	657	239
Si	2.16955	12.39561	-4.30322	-2	580	238	658	240
Si	-1.83406	10.01374	-2.54117	-2	234	426	413	239
O	0.57732	7.58069	-4.13602	-1	226	227	0	0
O	-1.33222	7.5599	-5.95746	-1	226	572	0	0
O	-1.67661	6.29079	-3.66943	-1	226	610	0	0
O	-1.65348	8.92879	-3.72529	-1	226	230	0	0
O	2.48078	7.55968	-5.96359	-1	227	573	0	0
O	2.83539	6.29453	-3.67477	-1	227	420	0	0
O	2.80752	8.93254	-3.73361	-1	227	611	0	0
O	0.57262	12.42568	-4.05775	-1	228	229	0	0
O	-1.72916	11.50376	-3.15612	-1	228	230	0	0
O	2.87384	11.5055	-3.15248	-1	229	611	0	0
Si	11.64025	7.58907	-4.37631	-2	659	243	245	244
Si	10.82693	10.01301	-2.54493	-2	245	435	660	661
H	11.35382	7.56117	-5.83422	-3	241	0	0	0
O	10.98439	6.29007	-3.67318	-1	241	612	0	0
O	11.00752	8.92807	-3.72904	-1	241	242	0	0
Si	-6.26532	-0.94265	8.83152	-2	253	255	252	254
Si	-9.46232	-0.94547	8.82947	-2	252	256	258	257
Si	-6.26257	-5.74866	8.89825	-2	464	259	260	261
Si	-9.45657	-5.74947	8.9022	-2	259	467	662	663
Si	-6.25477	-8.75865	8.81508	-2	635	262	260	263
Si	-5.45192	-3.3668	10.66214	-2	261	347	325	255
O	-7.86425	-0.93357	9.069	-1	246	247	0	0
O	-5.95479	-0.91258	7.24643	-1	246	458	0	0
O	-5.60904	0.35627	9.5344	-1	246	613	0	0
O	-5.6322	-2.28173	9.47826	-1	246	251	0	0
O	-9.76879	-0.91236	7.24356	-1	247	459	0	0
H	-10.06806	0.24853	9.47572	-3	247	0	0	0
H	-10.04321	-2.17847	9.42157	-3	247	0	0	0
O	-7.8595	-5.77958	9.14672	-1	248	249	0	0
O	-5.67965	-7.25469	8.95199	-1	248	250	0	0
O	-5.55618	-4.85776	10.04709	-1	248	251	0	0
H	-7.72972	-8.74458	9.00152	-3	250	0	0	0
H	-5.63151	-9.62375	9.85184	-3	250	0	0	0
Si	6.39568	-0.94338	8.82777	-2	272	274	271	273
Si	3.19968	-0.94619	8.82572	-2	275	277	271	276
Si	6.39842	-5.74938	8.8945	-2	486	278	279	280
Si	3.20543	-5.7502	8.89844	-2	489	278	281	282
Si	6.40623	-8.75938	8.81132	-2	636	283	279	664
Si	3.20023	-8.76019	8.81227	-2	637	283	281	284
Si	7.21008	-3.36753	10.65839	-2	280	349	338	274
O	4.79775	-0.9343	9.06524	-1	264	265	0	0
O	6.70621	-0.91331	7.24268	-1	264	480	0	0
O	7.05196	0.35554	9.53065	-1	264	614	0	0
O	7.02879	-2.28245	9.4745	-1	264	270	0	0
O	2.89321	-0.91309	7.23981	-1	265	481	0	0
O	2.53996	0.3518	9.52798	-1	265	332	0	0
O	2.56779	-2.2862	9.46983	-1	265	615	0	0
O	4.8025	-5.7803	9.14297	-1	266	267	0	0
O	6.98135	-7.25542	8.94824	-1	266	268	0	0
O	7.10482	-4.85849	10.04334	-1	266	270	0	0
O	2.62435	-7.25717	8.95153	-1	267	269	0	0
O	2.50182	-4.86022	10.0497	-1	267	615	0	0
O	4.80329	-8.7443	9.0138	-1	268	269	0	0
H	2.57949	-9.62722	9.84841	-3	269	0	0	0
Si	-6.26185	6.91334	8.89897	-2	290	504	289	291
Si	-9.45585	6.91253	8.90291	-2	289	292	507	665
Si	-6.25405	3.90235	8.81579	-2	638	293	290	294
Si	-9.46005	3.90153	8.81674	-2	293	639	292	295
O	-7.85878	6.88242	9.14744	-1	285	286	0	0
O	-5.67892	5.40631	8.95271	-1	285	287	0	0
H	-5.61149	7.73325	9.95582	-3	285	0	0	0
O	-10.03592	5.40456	8.956	-1	286	288	0	0
O	-7.85699	3.91743	9.01827	-1	287	288	0	0
O	-5.57677	2.96324	9.94254	-1	287	613	0	0
H	-10.08179	3.03451	9.85288	-3	288	0	0	0
Si	6.39915	6.91262	8.89521	-2	303	516	302	304
Si	3.20615	6.9118	8.89916	-2	305	519	302	306
Si	6.40695	3.90162	8.81204	-2	640	307	303	308
Si	3.20095	3.90081	8.81299	-2	641	307	305	309
H	2.9189	11.79992	7.12452	-3	513	0	0	0
H	2.54954	10.2888	9.56454	-3	616	0	0	0
O	4.80322	6.8817	9.14368	-1	296	297	0	0
O	6.98208	5.40558	8.94895	-1	296	298	0	0
H	7.04951	7.73252	9.95206	-3	296	0	0	0
O	2.62508	5.40383	8.95225	-1	297	299	0	0
O	2.50254	7.80078	10.05042	-1	297	616	0	0
O	4.80401	3.9167	9.01451	-1	298	299	0	0
O	7.08423	2.96252	9.93878	-1	298	614	0	0
O	2.52623	2.95878	9.93914	-1	299	332	0	0
Si	4.74702	0.7	-13.94365	-2	315	666	667	668
Si	-0.058	0.70328	-14.00823	-2	49	318	317	669
Si	-0.05918	-2.49072	-14.01241	-2	52	317	319	670
Si	-3.06897	0.71145	-13.92433	-2	617	318	320	671
Si	-3.07016	-2.49455	-13.92451	-2	320	618	319	672
O	4.77751	1.01091	-12.35764	-1	43	310	0	0
H	4.82933	-2.7781	-12.23787	-3	44	0	0	0
O	-0.08916	-0.8937	-14.25631	-1	311	312	0	0
O	-1.56498	1.28637	-14.06175	-1	311	313	0	0
O	-1.56723	-3.07063	-14.06399	-1	312	314	0	0
O	-3.05413	-0.89154	-14.12643	-1	313	314	0	0
Si	-7.90615	0.69924	12.4661	-2	673	674	324	323
Si	-7.90933	-2.49776	12.46992	-2	675	323	676	325
O	-7.89731	-0.89975	12.23001	-1	321	322	0	0
O	-6.60732	1.3552	11.76375	-1	321	613	0	0
O	-6.61158	-3.1568	11.7675	-1	251	322	0	0
Si	4.75485	0.69851	12.46235	-2	334	336	335	333
Si	4.75267	-2.49849	12.46617	-2	337	333	339	338
Si	-0.05017	0.70179	12.39777	-2	67	341	342	340
Si	-0.05135	-2.49221	12.39459	-2	68	343	340	344
Si	-3.06114	0.70996	12.48167	-2	619	341	345	346
Si	-3.06233	-2.49604	12.48149	-2	345	620	343	347
Si	2.33036	1.51175	10.63311	-2	276	309	342	336
O	4.76369	-0.90048	12.22625	-1	326	327	0	0
H	4.7833	0.98443	13.92136	-3	326	0	0	0
O	6.05368	1.35448	11.76	-1	326	614	0	0
O	3.4157	1.33162	11.81678	-1	326	332	0	0
H	4.78209	-2.78057	13.92514	-3	327	0	0	0
O	6.04942	-3.15752	11.76375	-1	270	327	0	0
O	3.41144	-3.13038	11.82253	-1	327	615	0	0
O	-0.08133	-0.89519	12.14969	-1	328	329	0	0
O	-1.55715	1.28488	12.34425	-1	328	330	0	0
O	0.84053	1.4078	11.24855	-1	328	332	0	0
O	-1.5594	-3.07212	12.34201	-1	329	331	0	0
O	0.83727	-3.1962	11.24329	-1	329	615	0	0
O	-3.04629	-0.89303	12.27957	-1	330	331	0	0
O	-4.00044	1.38707	11.35498	-1	330	613	0	0
O	-4.0047	-3.17193	11.35573	-1	251	331	0	0
H	8.54455	1.39636	11.29426	-3	614	0	0	0
H	8.54028	-3.18864	11.296	-3	270	0	0	0
H	0.95698	9.4518	11.19597	-3	616	0	0	0
Si	-12.03949	-6.71378	-0.73609	-2	359	358	360	677
Si	-12.0373	-3.51678	-0.73191	-2	358	361	363	362
Si	-7.23451	-6.71705	-0.80352	-2	75	365	364	366
Si	-7.23333	-3.52305	-0.80734	-2	78	364	367	368
Si	-4.22348	-6.72523	-0.72141	-2	621	365	369	370
Si	-4.2223	-3.51823	-0.72123	-23	369	622	367	371
Si	-9.61708	-7.52682	-2.56686	-2	161	181	366	360
O	-12.04847	-5.11477	-0.972	-1	351	352	0	0
O	-12.07003	-7.02487	0.8499	-1	71	351	0	0
O	-10.70172	-7.34682	-1.38352	-1	351	357	0	0
O	-12.06982	-3.21087	0.85412	-1	72	352	0	0
H	-13.23146	-2.91068	-1.37752	-3	352	0	0	0
O	-10.69646	-2.88482	-1.37627	-1	352	606	0	0
O	-7.20349	-5.12004	-1.05143	-1	353	354	0	0
O	-5.72856	-7.29914	-0.858	-1	353	355	0	0
O	-8.12589	-7.42194	-1.95229	-1	353	357	0	0
O	-5.72631	-2.94214	-0.85975	-1	354	356	0	0
O	-8.12363	-2.81894	-1.95703	-1	354	606	0	0
O	-4.23945	-5.12222	-0.92331	-1	355	356	0	0
O	-3.28486	-7.40122	-1.84873	-1	355	607	0	0
O	-3.2806	-2.84322	-1.84747	-1	24	356	0	0
Si	5.42649	-6.71778	-0.80727	-2	92	381	380	382
Si	5.42767	-3.52378	-0.81109	-23	95	380	383	384
Si	8.43752	-6.72596	-0.72516	-2	381	623	385	386
Si	8.4387	-3.51896	-0.72498	-2	385	624	383	387
Si	3.04492	-7.52754	-2.57061	-23	173	199	379	382
O	0.59196	-7.02559	0.84615	-1	87	25	0	0
O	-0.67773	-7.37039	-1.4415	-1	25	607	0	0
O	1.96028	-7.34755	-1.38728	-1	25	376	0	0
O	5.45751	-5.12077	-1.05519	-1	372	373	0	0
O	6.93344	-7.29986	-0.86175	-1	372	374	0	0
O	4.53511	-7.42266	-1.95605	-1	372	376	0	0
O	6.93569	-2.94286	-0.86351	-1	373	375	0	0
O	4.53737	-2.81966	-1.96079	-1	373	26	0	0
O	8.42255	-5.12294	-0.92707	-1	374	375	0	0
O	9.37614	-7.40195	-1.85248	-1	374	608	0	0
O	9.3804	-2.84395	-1.85122	-1	212	375	0	0
Si	13.28251	-6.71523	-0.7436	-2	391	390	392	678
Si	13.28469	-3.51823	-0.73942	-2	390	393	394	395
O	13.27353	-5.11622	-0.97951	-1	388	389	0	0
O	13.25296	-7.02632	0.84239	-1	106	388	0	0
O	11.98326	-7.37112	-1.44525	-1	388	608	0	0
O	13.25318	-3.21232	0.84661	-1	107	389	0	0
O	11.98752	-2.85912	-1.441	-1	212	389	0	0
H	14.51855	-2.93727	-1.33175	-3	389	0	0	0
Si	-12.03876	5.94822	-0.73537	-2	402	403	405	404
Si	-7.23378	5.94495	-0.8028	-2	122	406	407	408
Si	-7.2326	9.13795	-0.80662	-2	125	409	406	410
Si	-4.22276	5.93677	-0.72069	-2	411	625	407	412
Si	-4.22157	9.14277	-0.72051	-2	626	409	411	413
Si	-9.61635	5.13418	-2.56614	-2	187	224	408	405
H	-12.04674	7.41823	-0.95229	-3	396	0	0	0
O	-12.06931	5.63713	0.85062	-1	119	396	0	0
H	-13.23499	5.34432	-1.38105	-3	396	0	0	0
O	-10.70099	5.31518	-1.38281	-1	396	401	0	0
O	-7.20276	7.54096	-1.05072	-1	397	398	0	0
O	-5.72783	5.36186	-0.85728	-1	397	399	0	0
O	-8.12516	5.23906	-1.95158	-1	397	401	0	0
O	-5.72558	9.71886	-0.85903	-1	398	400	0	0
O	-8.1229	9.84206	-1.95632	-1	398	609	0	0
O	-4.23873	7.53978	-0.9226	-1	399	400	0	0
O	-3.28413	5.25978	-1.84801	-1	399	610	0	0
O	-3.27987	9.81778	-1.84675	-1	230	400	0	0
Si	0.62224	5.94749	-0.73913	-2	421	422	423	424
Si	0.62442	9.14349	-0.73495	-2	425	421	426	427
Si	5.42722	5.94422	-0.80656	-2	137	428	429	430
Si	5.4284	9.13722	-0.81038	-2	140	431	428	432
Si	8.43824	5.93604	-0.72445	-2	429	433	627	434
Si	8.43942	9.14204	-0.72427	-2	431	628	433	435
Si	3.04565	5.13346	-2.56989	-2	208	236	424	430
O	0.61326	7.54551	-0.97504	-1	414	415	0	0
O	0.59269	5.63641	0.84686	-1	131	414	0	0
O	-0.67701	5.29161	-1.44078	-1	414	610	0	0
O	1.96101	5.31445	-1.38656	-1	414	420	0	0
O	0.59291	9.44941	0.85108	-1	132	415	0	0
O	-0.67275	9.80361	-1.43653	-1	230	415	0	0
O	1.96527	9.77545	-1.37931	-1	415	611	0	0
O	5.45823	7.54023	-1.05447	-1	416	417	0	0
O	6.93417	5.36114	-0.86104	-1	416	418	0	0
O	4.53584	5.23834	-1.95533	-1	416	420	0	0
O	6.93642	9.71814	-0.86279	-1	417	419	0	0
O	4.5381	9.84134	-1.96007	-1	417	611	0	0
O	8.42327	7.53906	-0.92635	-1	418	419	0	0
O	9.37687	5.25905	-1.85177	-1	418	612	0	0
O	9.38113	9.81705	-1.85051	-1	242	419	0	0
Si	13.28324	5.94677	-0.74289	-2	679	437	438	680
O	13.25369	5.63568	0.84311	-1	151	436	0	0
O	11.98399	5.29088	-1.44454	-1	436	612	0	0
Si	-6.25571	-9.91749	5.88101	-2	443	442	441	635
Si	-9.46171	-9.9163	5.88196	-2	442	444	681	682
H	-5.72683	-11.30151	5.75478	-3	439	0	0	0
O	-7.85877	-9.93238	5.67949	-1	439	440	0	0
O	-5.57899	-8.97846	4.75387	-1	439	599	0	0
O	-10.13799	-8.9742	4.75522	-1	73	440	0	0
Si	6.39709	-12.92821	5.79309	-2	683	450	684	449
Si	3.20409	-12.92702	5.79104	-2	685	451	452	449
Si	6.40529	-9.91821	5.87726	-2	454	453	450	636
Si	3.19929	-9.91703	5.87821	-2	455	453	451	637
O	4.80102	-12.8981	5.54656	-1	445	446	0	0
O	6.98016	-11.42224	5.74	-1	445	447	0	0
O	2.62316	-11.41999	5.73829	-1	446	448	0	0
H	2.55573	-13.74593	4.73218	-3	446	0	0	0
O	4.80223	-9.93311	5.67573	-1	447	448	0	0
O	7.08201	-8.97919	4.75011	-1	447	601	0	0
O	2.52401	-8.97493	4.75146	-1	90	448	0	0
Si	-6.26644	-5.07149	5.86429	-2	466	463	465	464
Si	-9.46343	-5.0693	5.86824	-2	463	469	468	467
Si	-6.26318	-0.26648	5.79756	-2	253	471	470	472
Si	-9.45718	-0.2653	5.79551	-2	256	470	473	474
Si	-6.25498	2.74451	5.88173	-2	476	475	471	638
Si	-9.46098	2.7457	5.88268	-2	475	477	473	639
Si	-5.45384	-2.64843	4.03319	-2	79	105	472	466
O	-7.86551	-5.08038	5.62776	-1	456	457	0	0
O	-5.95497	-5.10259	7.4492	-1	248	456	0	0
O	-5.61072	-6.37148	5.16202	-1	456	599	0	0
O	-5.63355	-3.73348	5.21718	-1	456	462	0	0
O	-9.76897	-5.10237	7.45533	-1	249	457	0	0
O	-10.12272	-6.36722	5.16736	-1	73	457	0	0
O	-10.09555	-3.72823	5.2255	-1	457	600	0	0
O	-7.86025	-0.23538	5.55104	-1	458	459	0	0
O	-5.68011	1.23949	5.74447	-1	458	460	0	0
O	-5.55757	-1.15746	4.6483	-1	458	462	0	0
O	-10.03711	1.24174	5.74277	-1	459	461	0	0
O	-10.16157	-1.15519	4.64467	-1	459	600	0	0
O	-7.85804	2.72862	5.6802	-1	460	461	0	0
O	-5.57826	3.68354	4.75458	-1	460	603	0	0
O	-10.13726	3.6878	4.75593	-1	120	461	0	0
Si	6.39456	-5.07221	5.86053	-2	488	485	487	486
Si	3.19856	-5.07003	5.86448	-2	491	485	490	489
Si	6.39782	-0.26721	5.79381	-2	272	493	492	494
Si	3.20482	-0.26602	5.79175	-2	275	495	492	496
Si	6.40602	2.74379	5.87797	-2	498	497	493	640
Si	3.20002	2.74497	5.87892	-2	499	497	495	641
Si	7.20816	-2.64915	4.02943	-2	96	116	494	488
O	4.79649	-5.08111	5.62401	-1	478	479	0	0
O	6.70603	-5.10332	7.44544	-1	266	478	0	0
O	7.05028	-6.37221	5.15827	-1	478	601	0	0
O	7.02745	-3.73421	5.21342	-1	478	484	0	0
O	2.89303	-5.1031	7.45157	-1	267	479	0	0
O	2.53828	-6.36795	5.16361	-1	90	479	0	0
O	2.56645	-3.72895	5.22175	-1	479	602	0	0
O	4.80175	-0.2361	5.54728	-1	480	481	0	0
O	6.98089	1.23876	5.74072	-1	480	482	0	0
O	7.10343	-1.15818	4.64455	-1	480	484	0	0
O	2.62389	1.24101	5.73901	-1	481	483	0	0
O	2.50043	-1.15592	4.64091	-1	481	602	0	0
O	4.80296	2.72789	5.67645	-1	482	483	0	0
O	7.08274	3.68281	4.75083	-1	482	604	0	0
O	2.52474	3.68707	4.75218	-1	135	483	0	0
Si	-6.26571	7.58951	5.86501	-2	505	503	506	504
Si	-9.46271	7.5917	5.86895	-2	503	508	509	507
Si	-5.45311	10.01357	4.0339	-2	126	150	510	506
O	-7.86478	7.58062	5.62848	-1	500	501	0	0
O	-5.95424	7.55941	7.44991	-1	285	500	0	0
O	-5.60999	6.29052	5.16274	-1	500	603	0	0
O	-5.63283	8.92852	5.21789	-1	500	502	0	0
O	-9.76824	7.55963	7.45604	-1	286	501	0	0
O	-10.12199	6.29478	5.16808	-1	120	501	0	0
H	-10.04381	8.82576	5.2772	-3	501	0	0	0
H	-5.54887	11.38455	4.60001	-3	502	0	0	0
Si	6.39529	7.58879	5.86125	-2	517	515	518	516
Si	3.19929	7.59097	5.8652	-2	520	515	521	519
Si	3.20554	12.39498	5.79247	-2	300	524	522	686
Si	7.20888	10.01285	4.03015	-2	141	160	523	518
O	4.79722	7.57989	5.62472	-1	511	512	0	0
O	6.70676	7.55868	7.44616	-1	296	511	0	0
O	7.05101	6.28979	5.15898	-1	511	604	0	0
O	7.02817	8.92779	5.21414	-1	511	514	0	0
O	2.89376	7.5589	7.45229	-1	297	512	0	0
O	2.53901	6.29405	5.16432	-1	135	512	0	0
O	2.56718	8.93204	5.22246	-1	512	605	0	0
H	4.67448	12.4229	5.56803	-3	513	0	0	0
H	7.11213	11.38382	4.59625	-3	514	0	0	0